p cnf 48 170
4 2 0
4 -3 0
-2 3 -4 0
-5 -1 0
-5 4 0
1 -4 5 0
6 4 -7 0
-6 -4 -7 0
6 -4 7 0
-6 4 7 0
8 6 0
8 -3 0
-6 3 -8 0
7 8 -9 0
-7 -8 -9 0
7 -8 9 0
-7 8 9 0
10 5 0
10 -9 0
-5 9 -10 0
-13 -6 0
-13 -2 0
6 2 13 0
14 -12 0
14 -13 0
12 13 -14 0
11 14 -15 0
-11 -14 -15 0
11 -14 15 0
-11 14 15 0
16 -8 0
16 -13 0
8 13 -16 0
-14 -16 -17 0
14 16 -17 0
-14 16 17 0
14 -16 17 0
18 15 0
18 17 0
-15 -17 -18 0
-20 -19 0
-20 6 0
19 -6 20 0
-18 -20 -21 0
18 20 -21 0
-18 20 21 0
18 -20 21 0
-22 10 0
-22 21 0
-10 -21 22 0
2 -8 -23 0
-2 8 -23 0
2 8 23 0
-2 -8 23 0
24 14 0
24 23 0
-14 -23 -24 0
26 12 0
26 -25 0
-12 25 -26 0
-24 -26 -27 0
24 26 -27 0
-24 26 27 0
24 -26 27 0
28 25 0
28 2 0
-25 -2 -28 0
-6 -28 -29 0
6 28 -29 0
-6 28 29 0
6 -28 29 0
30 1 0
30 -13 0
-1 13 -30 0
30 4 -31 0
-30 -4 -31 0
30 -4 31 0
-30 4 31 0
-33 -6 0
-33 32 0
6 -32 33 0
34 16 0
34 -33 0
-16 33 -34 0
35 3 -36 0
-35 -3 -36 0
35 -3 36 0
-35 3 36 0
-13 -36 -37 0
13 36 -37 0
-13 36 37 0
13 -36 37 0
37 -8 -38 0
-37 8 -38 0
37 8 38 0
-37 -8 38 0
-34 -38 -39 0
34 38 -39 0
-34 38 39 0
34 -38 39 0
40 -31 0
40 -39 0
31 39 -40 0
29 40 -41 0
-29 -40 -41 0
29 -40 41 0
-29 40 41 0
19 -13 -42 0
-19 13 -42 0
19 13 42 0
-19 -13 42 0
-43 -7 0
-43 -42 0
7 42 43 0
44 41 0
44 43 0
-41 -43 -44 0
45 27 0
45 -44 0
-27 44 -45 0
46 -22 0
46 -45 0
22 45 -46 0
-33 38 -47 0
33 -38 -47 0
-33 -38 47 0
33 38 47 0
48 46 0
48 -47 0
-46 47 -48 0
-26 30 44 -36 22 -4 0
4 26 3 -14 7 0
-20 -1 -2 -5 23 -6 0
-27 -14 17 -36 18 -2 0
-30 -40 15 -44 0
9 18 34 -37 0
-30 -14 -7 41 12 0
9 -6 -5 -19 0
40 -37 3 9 -16 0
18 37 -17 24 15 0
-39 41 21 2 38 -23 0
16 -31 35 -4 13 0
-15 -4 0
-20 -32 36 24 11 0
22 15 -5 9 0
20 -8 -33 -26 0
-28 -27 -17 -39 22 -29 0
12 19 -45 48 24 -22 0
-30 -18 0
9 41 -16 0
20 -22 -26 0
-27 -32 -9 47 0
15 -34 0
-23 13 43 38 -28 0
-38 18 31 0
-41 -36 35 19 0
32 23 -44 0
-30 24 -8 0
28 -36 42 -10 0
-18 -38 0
44 28 32 -38 0
5 -21 -15 0
-31 -25 42 -18 0
-19 28 0
10 -4 48 36 -2 -33 0
26 31 33 30 43 0
-20 38 33 0
-23 19 18 0
-17 -47 -25 10 -21 0
48 0
